p tw 255 507
1 2
1 34
2 113
2 218
2 34
113 179
113 184
113 218
113 105
179 190
179 102
179 184
179 141
190 201
190 25
190 102
190 159
201 212
201 245
201 25
201 167
212 223
212 234
212 245
212 172
223 234
223 174
234 3
245 3
245 14
245 36
3 14
14 47
25 36
25 69
25 114
36 47
36 58
36 69
47 58
58 80
69 80
69 91
69 125
80 91
91 136
102 114
102 176
102 185
114 125
114 158
114 176
125 136
125 147
125 158
136 147
147 169
158 169
158 175
158 177
169 175
175 178
176 177
176 181
176 186
177 178
177 180
177 181
178 180
180 182
181 182
181 183
181 187
182 183
183 188
184 185
184 202
184 219
185 186
185 194
185 202
186 187
186 191
186 194
187 188
187 189
187 191
188 189
189 192
191 192
191 193
191 195
192 193
193 196
194 195
194 198
194 203
195 196
195 197
195 198
196 197
197 199
198 199
198 200
198 204
199 200
200 205
202 203
202 210
202 220
203 204
203 207
203 210
204 205
204 206
204 207
205 206
206 208
207 208
207 209
207 211
208 209
209 213
210 211
210 215
210 221
211 213
211 214
211 215
213 214
214 216
215 216
215 217
215 222
216 217
217 224
218 219
218 253
218 35
219 220
219 237
219 253
220 221
220 229
220 237
221 222
221 226
221 229
222 224
222 225
222 226
224 225
225 227
226 227
226 228
226 230
227 228
228 231
229 230
229 233
229 238
230 231
230 232
230 233
231 232
232 235
233 235
233 236
233 239
235 236
236 240
237 238
237 246
237 254
238 239
238 242
238 246
239 240
239 241
239 242
240 241
241 243
242 243
242 244
242 247
243 244
244 248
246 247
246 250
246 255
247 248
247 249
247 250
248 249
249 251
250 251
250 252
250 4
251 252
252 5
253 254
253 18
253 37
254 255
254 10
254 18
255 4
255 7
255 10
4 5
4 6
4 7
5 6
6 8
7 8
7 9
7 11
8 9
9 12
10 11
10 15
10 19
11 12
11 13
11 15
12 13
13 16
15 16
15 17
15 20
16 17
17 21
18 19
18 27
18 38
19 20
19 23
19 27
20 21
20 22
20 23
21 22
22 24
23 24
23 26
23 28
24 26
26 29
27 28
27 31
27 39
28 29
28 30
28 31
29 30
30 32
31 32
31 33
31 40
32 33
33 41
34 35
34 105
35 37
35 71
35 105
37 38
37 54
37 71
38 39
38 46
38 54
39 40
39 43
39 46
40 41
40 42
40 43
41 42
42 44
43 44
43 45
43 48
44 45
45 49
46 48
46 51
46 55
48 49
48 50
48 51
49 50
50 52
51 52
51 53
51 56
52 53
53 57
54 55
54 63
54 72
55 56
55 60
55 63
56 57
56 59
56 60
57 59
59 61
60 61
60 62
60 64
61 62
62 65
63 64
63 67
63 73
64 65
64 66
64 67
65 66
66 68
67 68
67 70
67 74
68 70
70 75
71 72
71 88
71 106
72 73
72 81
72 88
73 74
73 77
73 81
74 75
74 76
74 77
75 76
76 78
77 78
77 79
77 82
78 79
79 83
81 82
81 85
81 89
82 83
82 84
82 85
83 84
84 86
85 86
85 87
85 90
86 87
87 92
88 89
88 97
88 107
89 90
89 94
89 97
90 92
90 93
90 94
92 93
93 95
94 95
94 96
94 98
95 96
96 99
97 98
97 101
97 108
98 99
98 100
98 101
99 100
100 103
101 103
101 104
101 109
103 104
104 110
105 106
105 141
106 107
106 124
106 141
107 108
107 117
107 124
108 109
108 112
108 117
109 110
109 111
109 112
110 111
111 115
112 115
112 116
112 118
115 116
116 119
117 118
117 121
117 126
118 119
118 120
118 121
119 120
120 122
121 122
121 123
121 127
122 123
123 128
124 126
124 133
124 142
126 127
126 130
126 133
127 128
127 129
127 130
128 129
129 131
130 131
130 132
130 134
131 132
132 135
133 134
133 138
133 143
134 135
134 137
134 138
135 137
137 139
138 139
138 140
138 144
139 140
140 145
141 142
141 159
142 143
142 151
142 159
143 144
143 148
143 151
144 145
144 146
144 148
145 146
146 149
148 149
148 150
148 152
149 150
150 153
151 152
151 155
151 160
152 153
152 154
152 155
153 154
154 156
155 156
155 157
155 161
156 157
157 162
159 160
159 167
160 161
160 164
160 167
161 162
161 163
161 164
162 163
163 165
164 165
164 166
164 168
165 166
166 170
167 168
167 172
168 170
168 171
168 172
170 171
171 173
172 173
172 174
173 174
